201 300 25 26 19 26 47 14 37 24 23 39 15 16 44 10 47 22 18 13 38 31 27 21 28 10 49 10 46 27 28 28 38 43 46 47 18 43 12 48 18 27 36 23 33 32 24 29 44 32 34 33 14 10 46 34 12 44 34 48 22 14 27 11 47 23 50 17 17 11 14 25 28 42 41 12 23 14 33 19 38 16 42 43 18 38 26 21 33 12 18 48 16 36 49 12 10 10 21 17 11 27 34 32 19 24 36 32 28 19 41 18 25 35 10 34 24 28 45 47 30 14 46 36 40 45 41 40 45 11 49 48 29 33 31 40 49 17 21 27 26 12 37 43 39 37 26 12 14 22 49 35 27 45 22 18 41 12 10 37 16 49 36 35 33 19 24 32 26 37 10 44 41 37 38 29 25 16 31 31 28 32 17 47 28 30 17 20 32 17 47 38 17 34 24 41 43 40 24 20 27 24 15 